<number of tasks>
50

<cycle time>
1000

<order strength>
0.204


<task times>
1 223
2 203
3 137
4 193
5 115
6 116
7 159
8 566
9 271
10 265
11 40
12 513
13 520
14 153
15 119
16 354
17 69
18 185
19 55
20 150
21 139
22 586
23 300
24 54
25 110
26 545
27 143
28 281
29 485
30 99
31 45
32 227
33 248
34 501
35 166
36 179
37 130
38 161
39 575
40 43
41 98
42 170
43 26
44 59
45 597
46 262
47 214
48 566
49 90
50 242

<precedence relations>
1,10
1,13
3,38
5,8
5,12
5,24
5,40
6,9
6,11
8,16
10,14
10,15
10,17
11,17
12,42
13,31
14,21
15,20
15,36
16,18
16,19
16,22
16,23
19,27
19,29
19,43
20,24
21,25
21,28
22,28
22,30
23,26
23,33
24,32
25,31
25,33
26,35
26,36
27,45
27,47
28,34
28,37
30,32
31,40
32,39
32,41
34,42
35,43
36,38
38,45
38,47
40,44
40,48
40,49
43,46
43,50

<end>
